12098
1 0 1 0 0 1 0 0 1 0 0 1 0 0 1 0 1 0 0 0 1 0 0 0 1 0 0 0 0 1 
20 11 20 2 20 5 2 24 14 0 24 16 8 20 2 14 14 0 5 11 2 0 5 2 5 8 2 24 5 24 5 11 20 11 20 20 24 24 0 14 0 14 24 8 24 14 0 20 11 8 29 14 14 5 20 20 2 11 0 14 0 5 20 11 11 11 24 0 5 24 20 20 11 0 24 8 24 20 14 24 20 0 20 0 2 0 2 0 20 5 2 24 0 11 0 5 14 2 29 16 8 0 14 11 14 29 0 11 14 8 14 14 0 11 11 11 24 24 24 24 5 8 11 20 16 0 5 24 0 29 0 11 24 5 8 14 11 5 20 11 0 8 20 14 8 11 11 5 14 5 

Total Run Time: 270044 ms.
